(declare-fun a_ack!1619 () (_ BitVec 32))
(declare-fun b_ack!1618 () (_ BitVec 64))
(assert (not (bvslt a_ack!1619 #x00000000)))
(assert (not (fp.lt ((_ to_fp 11 53) b_ack!1618) ((_ to_fp 11 53) #x0000000000000000))))
(assert (= #x00000000 a_ack!1619))
(assert (not (fp.lt (fp.abs ((_ to_fp 11 53) b_ack!1618))
            ((_ to_fp 11 53) #x3e60000000000000))))
(assert (not (fp.leq (fp.abs ((_ to_fp 11 53) b_ack!1618))
             ((_ to_fp 11 53) #x4010000000000000))))

(check-sat)
(exit)
